7197 7150 5874
5282 6976 6829
6151 7110 6618
6061 6924 6721
7065 7447 5692
7741 6152 5600
7639 6762 5339
6697 7260 6330
6256 7763 5852
6592 7653 5639
6476 6825 6637
7403 6249 6111
5650 7790 5713
7252 6387 6275
5880 7728 6078
7757 6396 5469
5736 7209 6702
